(set-logic BV)

(synth-fun f ((x (_ BitVec 8)) (y (_ BitVec 8))) (_ BitVec 8)
  ((Start (_ BitVec 8)) (StartBool Bool) (StartBool_2 Bool) (Start_1 (_ BitVec 8)) (Start_8 (_ BitVec 8)) (StartBool_1 Bool) (Start_7 (_ BitVec 8)) (Start_5 (_ BitVec 8)) (Start_6 (_ BitVec 8)) (Start_3 (_ BitVec 8)) (Start_4 (_ BitVec 8)) (Start_2 (_ BitVec 8)))
  ((Start (_ BitVec 8) (y #b00000000 #b10100101 #b00000001 (bvnot Start) (bvneg Start) (bvudiv Start_1 Start_1) (bvlshr Start Start_2) (ite StartBool Start_1 Start_1)))
   (StartBool Bool (false (or StartBool_2 StartBool_1)))
   (StartBool_2 Bool (true (bvult Start_6 Start_2)))
   (Start_1 (_ BitVec 8) (#b00000001 (bvor Start_2 Start_4) (bvmul Start_2 Start_8) (bvurem Start_6 Start_7) (bvlshr Start_4 Start) (ite StartBool_1 Start_5 Start_1)))
   (Start_8 (_ BitVec 8) (y x (bvnot Start) (bvneg Start_1) (bvand Start_2 Start_4) (bvor Start_7 Start_4) (bvudiv Start_2 Start_5) (bvurem Start_1 Start_7)))
   (StartBool_1 Bool (true (not StartBool) (and StartBool_1 StartBool_1) (bvult Start_5 Start_8)))
   (Start_7 (_ BitVec 8) (y #b00000001 #b00000000 (bvnot Start_2) (bvand Start_4 Start_6) (bvor Start_8 Start_3) (bvudiv Start_4 Start_1) (bvshl Start_4 Start_4) (bvlshr Start_1 Start_4) (ite StartBool_1 Start_7 Start_3)))
   (Start_5 (_ BitVec 8) (y #b00000001 x #b00000000 #b10100101 (bvnot Start_5) (bvand Start_5 Start_4) (bvadd Start_1 Start_2) (bvmul Start_2 Start_2) (bvurem Start_1 Start_3) (bvlshr Start_4 Start_6) (ite StartBool Start_6 Start_4)))
   (Start_6 (_ BitVec 8) (y #b00000000 (bvnot Start_5) (bvand Start_6 Start_3) (bvor Start_4 Start_6) (bvmul Start_7 Start_5) (bvurem Start_1 Start_1) (ite StartBool Start_2 Start_4)))
   (Start_3 (_ BitVec 8) (y (bvneg Start) (bvand Start_4 Start_1) (bvmul Start_1 Start_5) (bvurem Start_5 Start_2)))
   (Start_4 (_ BitVec 8) (#b00000001 (bvnot Start_2) (bvor Start_3 Start) (bvurem Start_4 Start)))
   (Start_2 (_ BitVec 8) (#b00000001 (bvnot Start_1) (bvadd Start_1 Start_1) (bvudiv Start_3 Start_4) (bvlshr Start_4 Start_3)))))

(declare-var x (_ BitVec 8))
(declare-var y (_ BitVec 8))

(constraint (= (f x y) (bvurem y x)))

(check-synth)
